-57.0   28.0
 54.0  -65.0
 46.0   79.0
  8.0  111.0
-36.0   52.0
-22.0  -76.0
 34.0  129.0
 74.0    6.0
 -6.0  -41.0
 21.0   45.0
 37.0  155.0
-38.0   35.0
 -5.0  -24.0
 70.0  -74.0
 59.0  -26.0
